Minimize
  - 11 y_0 - 2 y_1 - 8 y_2 - 9 y_3 - 9 y_4 - y_5 - 9 y_6 - 8 y_7 - 7 y_8
   - 10 y_9 - 4 y_10 - 7 y_11 - 12 y_12 - 10 y_13 - 7 y_14 - 11 y_15
   - 6 y_16 - 8 y_17 - 4 y_18 - 12 y_19 - 5 y_20 - 3 y_21 - 3 y_22 - 4 y_23
   - 8 y_24 - 11 y_25 - 5 y_26 - 8 y_27 - 11 y_28 - 4 y_29 - 4 y_30
   - 6 y_31 - 11 y_32 - 4 y_33 - 8 y_34 - 11 y_35 - 11 y_36 - 12 y_37
   - 5 y_38 - 9 y_39 - 6 y_40 - 8 y_41 - 9 y_42 - 2 y_43 - 5 y_45 - 12 y_46
   - 4 y_47 - 3 y_48 - 11 y_49 + 358 Constant
Subject To
 c_0: y_2 = 1
 c_1_0: y_0 + y_15 + y_19 + y_28 + y_36 >= 1
 c_1_1: y_1 + y_43 >= 1
 c_1_2: y_2 >= 1
 c_1_3: y_3 + y_4 + y_42 >= 1
 c_1_4: y_3 + y_4 + y_42 >= 1
 c_1_5: y_5 + y_44 >= 1
 c_1_6: y_6 >= 1
 c_1_7: y_7 >= 1
 c_1_8: y_8 >= 1
 c_1_9: y_9 >= 1
 c_1_10: y_10 + y_18 + y_22 + y_33 + y_45 + y_47 >= 1
 c_1_11: y_11 + y_16 >= 1
 c_1_12: y_12 + y_25 + y_32 + y_49 >= 1
 c_1_13: y_13 >= 1
 c_1_14: y_14 >= 1
 c_1_15: y_0 + y_15 + y_19 + y_28 + y_36 >= 1
 c_1_16: y_11 + y_16 >= 1
 c_1_17: y_17 + y_41 >= 1
 c_1_18: y_10 + y_18 + y_22 + y_33 + y_47 >= 1
 c_1_19: y_0 + y_15 + y_19 + y_36 + y_46 >= 1
 c_1_20: y_20 + y_26 + y_31 + y_38 >= 1
 c_1_21: y_21 >= 1
 c_1_22: y_10 + y_18 + y_22 + y_33 >= 1
 c_1_23: y_23 + y_30 >= 1
 c_1_24: y_24 >= 1
 c_1_25: y_12 + y_25 + y_32 + y_49 >= 1
 c_1_26: y_20 + y_26 + y_38 >= 1
 c_1_27: y_27 >= 1
 c_1_28: y_0 + y_15 + y_28 + y_35 + y_37 >= 1
 c_1_29: y_29 >= 1
 c_1_30: y_23 + y_30 >= 1
 c_1_31: y_20 + y_31 + y_40 >= 1
 c_1_32: y_12 + y_25 + y_32 + y_35 + y_49 >= 1
 c_1_33: y_10 + y_18 + y_22 + y_33 + y_45 >= 1
 c_1_34: y_34 >= 1
 c_1_35: y_28 + y_32 + y_35 + y_49 >= 1
 c_1_36: y_0 + y_15 + y_19 + y_36 + y_46 >= 1
 c_1_37: y_28 + y_37 >= 1
 c_1_38: y_20 + y_26 + y_38 >= 1
 c_1_39: y_39 >= 1
 c_1_40: y_31 + y_40 >= 1
 c_1_41: y_17 + y_41 >= 1
 c_1_42: y_3 + y_4 + y_42 >= 1
 c_1_43: y_1 + y_43 >= 1
 c_1_44: y_5 + y_44 >= 1
 c_1_45: y_10 + y_33 + y_45 >= 1
 c_1_46: y_19 + y_36 + y_46 >= 1
 c_1_47: y_10 + y_18 + y_47 >= 1
 c_1_48: y_48 >= 1
 c_1_49: y_12 + y_25 + y_32 + y_35 + y_49 >= 1
Bounds
 Constant = 1
Binaries
 y_0 y_1 y_2 y_3 y_4 y_5 y_6 y_7 y_8 y_9 y_10 y_11 y_12 y_13 y_14 y_15 y_16
 y_17 y_18 y_19 y_20 y_21 y_22 y_23 y_24 y_25 y_26 y_27 y_28 y_29 y_30 y_31
 y_32 y_33 y_34 y_35 y_36 y_37 y_38 y_39 y_40 y_41 y_42 y_43 y_44 y_45 y_46
 y_47 y_48 y_49
End
